     Program PWSCF v.6.8 starts on 14Jun2022 at 11:39: 4

     Reading input from scf.in

     Current dimensions of program PWSCF are:
     Max number of different atomic species (ntypx) = 10
     Max number of k-points (npk) =  40000
     Max angular momentum in pseudopotentials (lmaxx) =  4
     file Si.pbe-n-kjpaw_psl.1.0.0.UPF: wavefunction(s)  3S 3P renormalized
     Message from routine set_cutoff:
     ecutrho < 4*ecutwfc, are you sure?
     Found symmetry operation: I + (  0.0000  0.5000 -0.5000)
     This is a supercell, fractional translations are disabled
     Message from routine setup:
     using ibrav=0 with symmetry is DISCOURAGED, use correct ibrav instead

     Subspace diagonalization in iterative solution of the eigenvalue problem:
     a serial algorithm will be used

     Using Slab Decomposition

     bravais-lattice index     =            0
     lattice parameter (alat)  =      10.3344  a.u.
     unit-cell volume          =    1103.7115 (a.u.)^3
     number of atoms/cell      =            8
     number of atomic types    =            1
     number of electrons       =        32.00
     number of Kohn-Sham states=           16
     kinetic-energy cutoff     =      80.0000  Ry
     charge density cutoff     =     240.0000  Ry
     scf convergence threshold =      1.0E-08
     mixing beta               =       0.7000
     number of iterations used =            8  plain     mixing
     Exchange-correlation= SLA  PW   PBX  PBC
                           (   1   4   3   4   0   0   0)

     celldm(1)=  10.334398  celldm(2)=   0.000000  celldm(3)=   0.000000
     celldm(4)=   0.000000  celldm(5)=   0.000000  celldm(6)=   0.000000

     crystal axes: (cart. coord. in units of alat)
               a(1) = (   1.000000   0.000000   0.000000 )
               a(2) = (   0.000000   1.000000   0.000000 )
               a(3) = (   0.000000   0.000000   1.000000 )

     reciprocal axes: (cart. coord. in units 2 pi/alat)
               b(1) = (  1.000000  0.000000  0.000000 )
               b(2) = (  0.000000  1.000000  0.000000 )
               b(3) = (  0.000000  0.000000  1.000000 )

     PseudoPot. # 1 for Si read from file:
     ./pseudo/Si.pbe-n-kjpaw_psl.1.0.0.UPF
     MD5 check sum: c39c59da582df4a0d9f10159256ea34e
     Pseudo is Projector augmented-wave + core cor, Zval =  4.0
     Generated using &quot;atomic&quot; code by A. Dal Corso  v.6.3
     Shape of augmentation charge: PSQ
     Using radial grid of 1141 points,  6 beta functions with:
                l(1) =   0
                l(2) =   0
                l(3) =   1
                l(4) =   1
                l(5) =   2
                l(6) =   2
     Q(r) pseudized with 0 coefficients

     atomic species   valence    mass     pseudopotential
        Si             4.00    28.08500     Si( 1.00)

     24 Sym. Ops. (no inversion) found

   Cartesian axes

     site n.     atom                  positions (alat units)
         1           Si  tau(   1) = (   0.2500000   0.7500000   0.2500000  )
         2           Si  tau(   2) = (   0.0000000   0.0000000   0.5000000  )
         3           Si  tau(   3) = (   0.2500000   0.2500000   0.7500000  )
         4           Si  tau(   4) = (   0.0000000   0.5000000   0.0000000  )
         5           Si  tau(   5) = (   0.7500000   0.7500000   0.7500000  )
         6           Si  tau(   6) = (   0.5000000   0.0000000   0.0000000  )
         7           Si  tau(   7) = (   0.7500000   0.2500000   0.2500000  )
         8           Si  tau(   8) = (   0.5000000   0.5000000   0.5000000  )

     number of k points=     4
                       cart. coord. in units 2pi/alat
        k(    1) = (   0.1250000   0.1250000   0.1250000), wk =   0.2500000
        k(    2) = (   0.1250000   0.1250000   0.3750000), wk =   0.7500000
        k(    3) = (   0.1250000   0.3750000   0.3750000), wk =   0.7500000
        k(    4) = (   0.3750000   0.3750000   0.3750000), wk =   0.2500000

     Initial potential from superposition of free atoms

     starting charge   31.99553, renormalised to   32.00000
     Starting wfcs are   32 randomized atomic wfcs
     Checking if some PAW data can be deallocated...

     Self-consistent Calculation

     iteration #  1     ecut=    80.00 Ry     beta= 0.70
     Davidson diagonalization with overlap
     ethr =  1.00E-02,  avg # of iterations =  2.0

     Threshold (ethr) on eigenvalues was too large:
     Diagonalizing with lowered threshold

     Davidson diagonalization with overlap
     ethr =  5.98E-04,  avg # of iterations =  2.0

     total energy              =    -373.80371337 Ry
     estimated scf accuracy    <       0.20756781 Ry

[...]

     total energy              =    -373.81394078 Ry
     estimated scf accuracy    <       0.00000012 Ry

     iteration #  8     ecut=    80.00 Ry     beta= 0.70
     Davidson diagonalization with overlap
     ethr =  1.39E-10,  avg # of iterations =  2.0

     End of self-consistent calculation

          k = 0.1250 0.1250 0.1250 ( 13322 PWs)   bands (ev):

    -5.6340  -2.6048  -2.6048  -2.6047  -0.7990  -0.7990  -0.7990   2.6239
     2.6239   2.6239   3.3542   3.3542   3.3542   4.3920   5.7026   5.7026

[...]

          k = 0.3750 0.3750 0.3750 ( 13295 PWs)   bands (ev):

    -4.1755  -3.4694  -3.4694  -3.4694  -0.6778  -0.6778  -0.6778   0.1098
     3.7369   3.7369   3.7369   4.4512   4.4512   4.4512   4.9158   4.9158

     highest occupied level (ev):     5.7026

!    total energy              =    -373.81394079 Ry

     total all-electron energy =     -4640.580861 Ry
     estimated scf accuracy    <          7.7E-09 Ry

     The total energy is the sum of the following terms:
     one-electron contribution =      22.29520796 Ry
     hartree contribution      =       4.47811167 Ry
     xc contribution           =     -49.13394917 Ry
     ewald contribution        =     -66.71991328 Ry
     one-center paw contrib.   =    -284.73339797 Ry

     convergence has been achieved in   8 iterations

     Writing output data file ./out_qa/qa.save/

     General routines

     Parallel routines

   This run was terminated on:  11:39:49  14Jun2022

   JOB DONE.
Note: The following floating-point exceptions are signalling: IEEE_DENORMAL