     Program PWSCF v.6.8 starts on 14Jun2022 at 15:55:38

     Reading input from scf_1.7.in

     Current dimensions of program PWSCF are:
     Max number of different atomic species (ntypx) = 10
     Max number of k-points (npk) =  40000
     Max angular momentum in pseudopotentials (lmaxx) =  4

[...]

     Current dimensions of program PWSCF are:
     Max number of different atomic species (ntypx) = 10
     Max number of k-points (npk) =  40000
     Max angular momentum in pseudopotentials (lmaxx) =  4
     file Si.pbe-n-kjpaw_psl.1.0.0.UPF: wavefunction(s)  3S 3P renormalized
     Message from routine set_cutoff:
     ecutrho < 4*ecutwfc, are you sure?
     Found symmetry operation: I + (  0.0000  0.5000 -0.5000)
     This is a supercell, fractional translations are disabled
     Message from routine setup:
     using ibrav=0 with symmetry is DISCOURAGED, use correct ibrav instead

     Subspace diagonalization in iterative solution of the eigenvalue problem:
     a serial algorithm will be used

     Using Slab Decomposition

     bravais-lattice index     =            0
     lattice parameter (alat)  =       3.2125  a.u.
     unit-cell volume          =      33.1546 (a.u.)^3
     number of atoms/cell      =            8
     number of atomic types    =            1
     number of electrons       =        32.00
     number of Kohn-Sham states=           16
     kinetic-energy cutoff     =      80.0000  Ry
     charge density cutoff     =     240.0000  Ry
     scf convergence threshold =      1.0E-08
     mixing beta               =       0.7000
     number of iterations used =            8  plain     mixing
     Exchange-correlation= SLA  PW   PBX  PBC
                           (   1   4   3   4   0   0   0)

     celldm(1)=   3.212534  celldm(2)=   0.000000  celldm(3)=   0.000000
     celldm(4)=   0.000000  celldm(5)=   0.000000  celldm(6)=   0.000000

     crystal axes: (cart. coord. in units of alat)
               a(1) = (   1.000000   0.000000   0.000000 )
               a(2) = (   0.000000   1.000000   0.000000 )
               a(3) = (   0.000000   0.000000   1.000000 )

     reciprocal axes: (cart. coord. in units 2 pi/alat)
               b(1) = (  1.000000  0.000000  0.000000 )
               b(2) = (  0.000000  1.000000  0.000000 )
               b(3) = (  0.000000  0.000000  1.000000 )

     PseudoPot. # 1 for Si read from file:
     ./pseudo/Si.pbe-n-kjpaw_psl.1.0.0.UPF
     MD5 check sum: c39c59da582df4a0d9f10159256ea34e
     Pseudo is Projector augmented-wave + core cor, Zval =  4.0
     Generated using &quot;atomic&quot; code by A. Dal Corso  v.6.3
     Shape of augmentation charge: PSQ
     Using radial grid of 1141 points,  6 beta functions with:
                l(1) =   0
                l(2) =   0
                l(3) =   1
                l(4) =   1
                l(5) =   2
                l(6) =   2
     Q(r) pseudized with 0 coefficients

     atomic species   valence    mass     pseudopotential
        Si             4.00    28.08500     Si( 1.00)

     24 Sym. Ops. (no inversion) found

   Cartesian axes

     site n.     atom                  positions (alat units)
         1           Si  tau(   1) = (   0.2500000   0.7500000   0.2500000  )
         2           Si  tau(   2) = (   0.0000000   0.0000000   0.5000000  )
         3           Si  tau(   3) = (   0.2500000   0.2500000   0.7500000  )
         4           Si  tau(   4) = (   0.0000000   0.5000000   0.0000000  )
         5           Si  tau(   5) = (   0.7500000   0.7500000   0.7500000  )
         6           Si  tau(   6) = (   0.5000000   0.0000000   0.0000000  )
         7           Si  tau(   7) = (   0.7500000   0.2500000   0.2500000  )
         8           Si  tau(   8) = (   0.5000000   0.5000000   0.5000000  )

     number of k points=     4
                       cart. coord. in units 2pi/alat
        k(    1) = (   0.1250000   0.1250000   0.1250000), wk =   0.2500000
        k(    2) = (   0.1250000   0.1250000   0.3750000), wk =   0.7500000
        k(    3) = (   0.1250000   0.3750000   0.3750000), wk =   0.7500000
        k(    4) = (   0.3750000   0.3750000   0.3750000), wk =   0.2500000

[...]

     Current dimensions of program PWSCF are:
     Max number of different atomic species (ntypx) = 10
     Max number of k-points (npk) =  40000
     Max angular momentum in pseudopotentials (lmaxx) =  4

[...]

     Program PWSCF v.6.8 starts on 14Jun2022 at 15:55:38

     Reading input from scf_1.7.in

     Current dimensions of program PWSCF are:
     Max number of different atomic species (ntypx) = 10
     Max number of k-points (npk) =  40000
     Max angular momentum in pseudopotentials (lmaxx) =  4
     file Si.pbe-n-kjpaw_psl.1.0.0.UPF: wavefunction(s)  3S 3P renormalized
     Message from routine set_cutoff:
     ecutrho < 4*ecutwfc, are you sure?
     Found symmetry operation: I + (  0.0000  0.5000 -0.5000)
     This is a supercell, fractional translations are disabled
     Message from routine setup:
     using ibrav=0 with symmetry is DISCOURAGED, use correct ibrav instead

[...]

     Subspace diagonalization in iterative solution of the eigenvalue problem:
     a serial algorithm will be used

     Using Slab Decomposition

     bravais-lattice index     =            0
     lattice parameter (alat)  =       3.2125  a.u.
     unit-cell volume          =      33.1546 (a.u.)^3
     number of atoms/cell      =            8
     number of atomic types    =            1
     number of electrons       =        32.00
     number of Kohn-Sham states=           16
     kinetic-energy cutoff     =      80.0000  Ry
     charge density cutoff     =     240.0000  Ry
     scf convergence threshold =      1.0E-08
     mixing beta               =       0.7000
     number of iterations used =            8  plain     mixing
     Exchange-correlation= SLA  PW   PBX  PBC
                           (   1   4   3   4   0   0   0)

     celldm(1)=   3.212534  celldm(2)=   0.000000  celldm(3)=   0.000000
     celldm(4)=   0.000000  celldm(5)=   0.000000  celldm(6)=   0.000000

     crystal axes: (cart. coord. in units of alat)
               a(1) = (   1.000000   0.000000   0.000000 )
               a(2) = (   0.000000   1.000000   0.000000 )
               a(3) = (   0.000000   0.000000   1.000000 )

     reciprocal axes: (cart. coord. in units 2 pi/alat)
               b(1) = (  1.000000  0.000000  0.000000 )
               b(2) = (  0.000000  1.000000  0.000000 )
               b(3) = (  0.000000  0.000000  1.000000 )

     PseudoPot. # 1 for Si read from file:
     ./pseudo/Si.pbe-n-kjpaw_psl.1.0.0.UPF
     MD5 check sum: c39c59da582df4a0d9f10159256ea34e
     Pseudo is Projector augmented-wave + core cor, Zval =  4.0
     Generated using &quot;atomic&quot; code by A. Dal Corso  v.6.3
     Shape of augmentation charge: PSQ
     Using radial grid of 1141 points,  6 beta functions with:
                l(1) =   0
                l(2) =   0
                l(3) =   1
                l(4) =   1
                l(5) =   2
                l(6) =   2
     Q(r) pseudized with 0 coefficients

     atomic species   valence    mass     pseudopotential
        Si             4.00    28.08500     Si( 1.00)

     24 Sym. Ops. (no inversion) found

   Cartesian axes

     site n.     atom                  positions (alat units)
         1           Si  tau(   1) = (   0.2500000   0.7500000   0.2500000  )
         2           Si  tau(   2) = (   0.0000000   0.0000000   0.5000000  )
         3           Si  tau(   3) = (   0.2500000   0.2500000   0.7500000  )
         4           Si  tau(   4) = (   0.0000000   0.5000000   0.0000000  )
         5           Si  tau(   5) = (   0.7500000   0.7500000   0.7500000  )
         6           Si  tau(   6) = (   0.5000000   0.0000000   0.0000000  )
         7           Si  tau(   7) = (   0.7500000   0.2500000   0.2500000  )
         8           Si  tau(   8) = (   0.5000000   0.5000000   0.5000000  )

     number of k points=     4
                       cart. coord. in units 2pi/alat
        k(    1) = (   0.1250000   0.1250000   0.1250000), wk =   0.2500000
        k(    2) = (   0.1250000   0.1250000   0.3750000), wk =   0.7500000
        k(    3) = (   0.1250000   0.3750000   0.3750000), wk =   0.7500000
        k(    4) = (   0.3750000   0.3750000   0.3750000), wk =   0.2500000

     Initial potential from superposition of free atoms

     starting charge   31.99553, renormalised to   32.00000

[...]

     starting charge   31.99553, renormalised to   32.00000

     Initial potential from superposition of free atoms

     starting charge   31.99553, renormalised to   32.00000
     Starting wfcs are   32 randomized atomic wfcs
     Checking if some PAW data can be deallocated...

     Self-consistent Calculation

     iteration #  1     ecut=    80.00 Ry     beta= 0.70
     Davidson diagonalization with overlap
     Starting wfcs are   32 randomized atomic wfcs
     Starting wfcs are   32 randomized atomic wfcs
     Starting wfcs are   32 randomized atomic wfcs
     Starting wfcs are   32 randomized atomic wfcs
     Starting wfcs are   32 randomized atomic wfcs
     Checking if some PAW data can be deallocated...

[...]

     iteration #  1     ecut=    80.00 Ry     beta= 0.70
     Davidson diagonalization with overlap
     Checking if some PAW data can be deallocated...

[...]

     iteration #  1     ecut=    80.00 Ry     beta= 0.70
     Davidson diagonalization with overlap
     Starting wfcs are   32 randomized atomic wfcs
     Checking if some PAW data can be deallocated...

[...]

     iteration #  1     ecut=    80.00 Ry     beta= 0.70
     Davidson diagonalization with overlap
     ethr =  1.00E-02,  avg # of iterations =  7.0
     Checking if some PAW data can be deallocated...

[...]

     iteration #  1     ecut=    80.00 Ry     beta= 0.70
     Davidson diagonalization with overlap
     Starting wfcs are   32 randomized atomic wfcs
     Starting wfcs are   32 randomized atomic wfcs
     Starting wfcs are   32 randomized atomic wfcs

     negative rho (up, down):  4.089E-01 0.000E+00
     Checking if some PAW data can be deallocated...

[...]

     iteration #  1     ecut=    80.00 Ry     beta= 0.70
     Davidson diagonalization with overlap
     Checking if some PAW data can be deallocated...

     Self-consistent Calculation

     iteration #  1     ecut=    80.00 Ry     beta= 0.70
     Davidson diagonalization with overlap
     ethr =  1.00E-02,  avg # of iterations =  7.0
     ethr =  1.00E-02,  avg # of iterations =  7.0

     negative rho (up, down):  4.089E-01 0.000E+00
     ethr =  1.00E-02,  avg # of iterations =  7.0

[...]

     negative rho (up, down):  4.089E-01 0.000E+00

[...]

     total energy              =    -135.47490634 Ry
     estimated scf accuracy    <       5.04795282 Ry

     iteration #  2     ecut=    80.00 Ry     beta= 0.70
     Davidson diagonalization with overlap

[...]

     negative rho (up, down):  1.769E-01 0.000E+00
     ethr =  6.16E-03,  avg # of iterations =  1.0
     ethr =  6.16E-03,  avg # of iterations =  1.0
     ethr =  6.16E-03,  avg # of iterations =  1.0

[...]

     negative rho (up, down):  1.769E-01 0.000E+00

[...]

     iteration # 15     ecut=    80.00 Ry     beta= 0.70

[...]

     iteration # 32     ecut=    80.00 Ry     beta= 0.70

[...]

     total energy              =    -143.58003632 Ry
     estimated scf accuracy    <       0.00001292 Ry
     ethr =  2.40E-08,  avg # of iterations =  1.2

[...]

     total energy              =    -143.58003560 Ry
     estimated scf accuracy    <       0.00000016 Ry
     ethr =  5.05E-10,  avg # of iterations =  2.5

[...]

     iteration # 54     ecut=    80.00 Ry     beta= 0.70
     Davidson diagonalization with overlap
     total energy              =    -143.58003561 Ry
     estimated scf accuracy    <       0.00000004 Ry

[...]

     iteration # 54     ecut=    80.00 Ry     beta= 0.70
     Davidson diagonalization with overlap

[...]

     total energy              =    -143.58003561 Ry
     estimated scf accuracy    <       0.00000004 Ry

     iteration # 54     ecut=    80.00 Ry     beta= 0.70
     Davidson diagonalization with overlap
     ethr =  1.23E-10,  avg # of iterations =  2.8
     ethr =  1.23E-10,  avg # of iterations =  2.8
     ethr =  1.23E-10,  avg # of iterations =  2.8
     ethr =  1.23E-10,  avg # of iterations =  2.8

     End of self-consistent calculation

          k = 0.1250 0.1250 0.1250 (   410 PWs)   bands (ev):

   109.6998 109.6998 109.7886 121.8491 121.8491 121.9052 157.5460 157.5460
   158.9047 181.4996 181.4996 190.5956 190.8269 190.8269 197.4105 197.4105

[...]

     highest occupied level (ev):   197.4105

!    total energy              =    -143.58003563 Ry

     total all-electron energy =     -4410.346955 Ry
     estimated scf accuracy    <          7.5E-09 Ry

     The total energy is the sum of the following terms:
     one-electron contribution =     474.13592263 Ry
     hartree contribution      =       0.51024255 Ry
     xc contribution           =    -100.48837630 Ry
     ewald contribution        =    -214.63121087 Ry
     one-center paw contrib.   =    -303.10661365 Ry

     convergence has been achieved in  54 iterations

     Writing output data file ./out_qa/qa.save/

     General routines

     Parallel routines

   This run was terminated on:  15:56:39  14Jun2022

   JOB DONE.

[...]

     End of self-consistent calculation

[...]

          k = 0.3750 0.3750 0.3750 (   396 PWs)   bands (ev):

   128.6287 128.6287 128.7359 146.4270 146.4270 148.1240 148.1240 148.1564
   150.1152 150.3262 150.3262 150.6424 174.4197 175.2219 175.2219 175.3239

     highest occupied level (ev):   197.4105

!    total energy              =    -143.58003563 Ry

     total all-electron energy =     -4410.346955 Ry
     estimated scf accuracy    <          7.5E-09 Ry

     The total energy is the sum of the following terms:
     one-electron contribution =     474.13592263 Ry
     hartree contribution      =       0.51024255 Ry
     xc contribution           =    -100.48837630 Ry
     ewald contribution        =    -214.63121087 Ry
     one-center paw contrib.   =    -303.10661365 Ry

     convergence has been achieved in  54 iterations

[...]

     Writing output data file ./out_qa/qa.save/

     General routines

     Parallel routines

   This run was terminated on:  15:56:39  14Jun2022

   JOB DONE.